p cnf 7230 16
-3476 -4121 4122 0
-1752 -3474 -3480 4119 0
1752 -4119 0
4121 -4123 0
3474 -4119 0
1754 -4121 0
-1754 -3478 4120 0
-3540 4125 0
4124 -4125 0
3540 -4124 0
-4122 4123 0
3476 -4123 0
-4120 4121 0
3478 -4121 0
-4118 4119 0
4118 -4119 0
